;; sequence(s): A266542
;; terms: 2 3 5 6 8 11 13 16 20 23 27 32 36 41 47 52 58 65 71 78
;; small program: 1 + (loop(x + y, 2 + x, 2) div (1 + 2))
;; fast program: 2 + (x - ((x - (x * x)) div (2 + (2 + 2))))
(set-logic UFNIA)
(define-fun divf ((a Int) (b Int)) Int (ite (< 0 b) (div a b) (div (- a) (- b))))
(declare-fun f0 (Int Int) Int)
(declare-fun g0 (Int) Int)
(declare-fun h0 () Int)
(declare-fun u0 (Int Int) Int)
(declare-fun v0 (Int) Int)
(declare-fun small (Int) Int)
(declare-fun fast (Int) Int)
(assert (forall ((x Int) (y Int)) (= (f0 x y) (+ x y))))
(assert (forall ((x Int)) (= (g0 x) (+ 2 x))))
(assert (= h0 2))
(assert (forall ((x Int) (y Int)) (= (u0 x y) (ite (<= x 0) y (f0 (u0 (- x 1) y) x)))))
(assert (forall ((x Int)) (= (v0 x) (u0 (g0 x) h0))))
(assert (forall ((x Int)) (= (small x) (+ 1 (divf (v0 x) (+ 1 2))))))
(assert (forall ((x Int)) (= (fast x) (+ 2 (- x (divf (- x (* x x)) (+ 2 (+ 2 2))))))))
(assert (exists ((c Int)) (and (>= c 0) (not (= (small c) (fast c))))))
(check-sat)
